Version identifier: 20.1.0.0 | 2020-11-10 | 9bedb6d68
CPXPARAM_Threads                                 1
CPXPARAM_TimeLimit                               7200
CPXPARAM_MIP_Tolerances_MIPGap                   0
Generic callback                                 0x60
1 of 1 MIP starts provided solutions.
MIP start 'm1' defined initial solution with objective 880.0330.
Tried aggregator 1 time.
Reduced MIP has 1 rows, 501 columns, and 500 nonzeros.
Reduced MIP has 500 binaries, 0 generals, 0 SOSs, and 0 indicators.
Presolve time = 0.00 sec. (0.15 ticks)
Probing time = 0.00 sec. (0.05 ticks)
Tried aggregator 1 time.
Reduced MIP has 1 rows, 501 columns, and 500 nonzeros.
Reduced MIP has 500 binaries, 0 generals, 0 SOSs, and 0 indicators.
Presolve time = 0.00 sec. (0.15 ticks)
Probing time = 0.00 sec. (0.05 ticks)
MIP emphasis: balance optimality and feasibility.
MIP search method: dynamic search.
Parallel mode: none, using 1 thread.
Root relaxation solution time = 0.00 sec. (0.10 ticks)

        Nodes                                         Cuts/
   Node  Left     Objective  IInf  Best Integer    Best Bound    ItCnt     Gap

*     0+    0                          880.0330     2716.0000           208.62%
      0     0     1110.0854     2      880.0330     2716.0000        0  208.62%
      0     0     1077.1973     4      880.0330 UserPurge2: 1        7   22.40%
      0     0      938.6616     3      880.0330 UserPurge2: 1       19    6.66%
      0     0      927.2459     4      880.0330 UserPurge2: 1       22    5.36%

Repeating presolve.
Tried aggregator 1 time.
MIP Presolve eliminated 0 rows and 158 columns.
Reduced MIP has 1 rows, 343 columns, and 342 nonzeros.
Reduced MIP has 342 binaries, 0 generals, 0 SOSs, and 0 indicators.
Presolve time = 0.00 sec. (0.13 ticks)
Probing time = 0.00 sec. (0.04 ticks)
Tried aggregator 1 time.
Reduced MIP has 1 rows, 343 columns, and 342 nonzeros.
Reduced MIP has 342 binaries, 0 generals, 0 SOSs, and 0 indicators.
Presolve time = 0.00 sec. (0.11 ticks)
Represolve time = 0.00 sec. (0.79 ticks)
Probing time = 0.00 sec. (0.04 ticks)
MIP emphasis: balance optimality and feasibility.
MIP search method: dynamic search.
Parallel mode: none, using 1 thread.
Root relaxation solution time = 0.00 sec. (0.42 ticks)

        Nodes                                         Cuts/
   Node  Left     Objective  IInf  Best Integer    Best Bound    ItCnt     Gap

*     0+    0                          880.0330      927.2459             5.36%
      0     0      927.2459     4      880.0330      927.2459       37    5.36%
      0     0      920.0683     4      880.0330 UserPurge2: 1       43    4.55%
      0     0      916.6069     4      880.0330 UserPurge2: 1       47    4.16%
      0     0      914.4214     4      880.0330 UserPurge2: 1       55    3.91%
      0     0      912.4966     4      880.0330 UserPurge2: 1       60    3.69%
      0     0      909.2551     5      880.0330 UserPurge2: 1       67    3.32%
*     0+    0                          882.8506      909.2551             2.99%
      0     0      908.2430     6      882.8506 UserPurge2: 1       73    2.88%
      0     0      906.7279     7      882.8506 UserPurge2: 1       78    2.70%
      0     2      906.7279     7      882.8506      906.5073       78    2.68%
Elapsed time = 7.92 sec. (11.89 ticks, tree = 0.01 MB, solutions = 2)
      3     3      887.2119     5      882.8506      887.3373     1585    0.51%
      8     4      885.3780    11      882.8506      887.3373     2481    0.51%
     10     4      885.0382     8      882.8506      887.3373     3061    0.51%
     11     5      884.7421     9      882.8506      887.3373     3433    0.51%
     13     5      883.9823    10      882.8506      887.3373     4031    0.51%
     22     3      883.5418     9      882.8506      883.9807     4477    0.13%
     23     4      883.1064     9      882.8506      883.9807     4962    0.13%

User cuts applied:  1885

Root node processing (before b&c):
  Real time             =    7.92 sec. (13.75 ticks)
Sequential b&c:
  Real time             =  248.69 sec. (3104.71 ticks)
                          ------------
Total (root+branch&cut) =  256.61 sec. (3118.46 ticks)
@Parameters: 
is_S_cut                                true
is_add_all_yinF                         true
is_start_value                          true
is_usercut                              true
is_visualization                        false
uc_only_rootnode                        false

data                                    Qi
fn                                      data/Qi/instance_500_500.csv
mode                                    NewSubmodular
solver                                  cplex

p                                       2
r                                       5

EPS                                     1.0e-06
EPS_vio                                 1.0e-04
beta                                    0.10
gap                                     0.00
nodelimit                               Inf
timelimit                               7200.00


@PrintInfos
ItCnt: 4993
Current gap: 0.00 %
Termination Status: OPTIMAL
Primal Status: FEASIBLE_POINT
Solve Time: 256.61 sec
Objective Value: 882.850650
Number of Nodes:     28

CutInfo: [phase] num / time (sec) 
ZLP             [phase1]     0 / 0.00 [rLC]     0 / 0.00 [rUC]     0 / 0.00 [sLC]     0 / 0.00 [sUC]     0 / 0.00 
OldSubmodular   [phase1]     0 / 0.00 [rLC]     0 / 0.00 [rUC]     0 / 0.00 [sLC]     0 / 0.00 [sUC]     0 / 0.00 
NewSubmodular   [phase1]     0 / 0.00 [rLC]    11 / 4.98 [rUC]    22 / 0.90 [sLC]     0 / 0.00 [sUC]  1878 / 245.98 
PMP             [phase1]     0 / 0.00 [rLC]     5 / 2.91 [rUC]     0 / 0.00 [sLC]     0 / 0.00 [sUC]    47 / 36.43 
Separation Round: [phase1] 0  [rLC] 13  [rUC] 12  [sLC] 0  [sUC] 448
Root Best Bound 887.337338
Root Best Integer: 882.850650
Best Bound: 882.850650
Best Integer: 882.850650

